(set-logic QF_S)
(declare-fun var0 () Bool)
(declare-fun var1 () Int)
(declare-fun var2 () Int)
(declare-fun var3 () String)
(declare-fun var4 () Int)
(declare-fun var5 () String)
(declare-fun var6 () Int)
(declare-fun var7 () String)
(declare-fun var8 () String)
(assert (not var0))
(assert (< var1 var2))
(assert (str.suffixof (str.at var3 var4) (str.substr var5 56 var6)))
(assert (str.prefixof var7 var8))
(check-sat)